c Created with the Wolfram Language : www.wolfram.com
c 
p edge 70 353
e 1 2
e 4 6
e 2 7
e 6 7
e 1 10
e 2 10
e 2 11
e 8 12
e 7 13
e 3 14
e 8 16
e 9 16
e 12 16
e 13 16
e 1 17
e 2 17
e 10 17
e 13 17
e 5 18
e 9 18
e 10 18
e 15 18
e 17 18
e 4 19
e 14 20
e 1 21
e 9 21
e 12 21
e 17 21
e 11 22
e 15 22
e 17 22
e 20 22
e 3 23
e 4 23
e 13 24
e 7 25
e 13 25
e 17 25
e 21 25
e 5 26
e 9 26
e 14 26
e 18 27
e 23 27
e 25 27
e 7 28
e 11 28
e 13 28
e 22 28
e 7 29
e 12 29
e 16 29
e 22 29
e 28 29
e 5 30
e 16 30
e 19 30
e 20 30
e 23 30
e 25 30
e 2 31
e 16 31
e 19 31
e 21 31
e 1 32
e 8 32
e 12 32
e 13 32
e 19 32
e 12 33
e 14 33
e 30 33
e 13 34
e 14 34
e 30 34
e 6 35
e 9 35
e 11 35
e 16 35
e 18 35
e 24 35
e 27 35
e 30 35
e 31 35
e 7 36
e 15 36
e 16 36
e 17 36
e 1 37
e 5 37
e 8 37
e 17 37
e 19 37
e 20 37
e 21 37
e 33 37
e 1 38
e 9 38
e 13 38
e 17 38
e 18 38
e 1 39
e 15 39
e 19 39
e 30 39
e 31 39
e 38 39
e 6 40
e 17 40
e 20 40
e 31 40
e 35 40
e 3 41
e 17 41
e 23 41
e 27 41
e 28 41
e 33 41
e 4 42
e 6 42
e 9 42
e 13 42
e 17 42
e 32 42
e 37 42
e 39 42
e 1 43
e 3 43
e 10 43
e 17 43
e 21 43
e 28 43
e 29 43
e 30 43
e 39 43
e 6 44
e 14 44
e 16 44
e 20 44
e 23 44
e 24 44
e 30 44
e 31 44
e 32 44
e 36 44
e 42 44
e 9 45
e 19 45
e 21 45
e 33 45
e 41 45
e 15 46
e 35 46
e 5 47
e 14 47
e 16 47
e 17 47
e 25 47
e 30 47
e 31 47
e 32 47
e 39 47
e 45 47
e 9 48
e 19 48
e 26 48
e 30 48
e 31 48
e 32 48
e 36 48
e 41 48
e 46 48
e 2 49
e 16 49
e 27 49
e 29 49
e 34 49
e 40 49
e 41 49
e 13 50
e 14 50
e 16 50
e 20 50
e 22 50
e 25 50
e 27 50
e 46 50
e 15 51
e 16 51
e 18 51
e 23 51
e 24 51
e 28 51
e 31 51
e 39 51
e 44 51
e 9 52
e 14 52
e 20 52
e 26 52
e 28 52
e 32 52
e 35 52
e 36 52
e 41 52
e 44 52
e 2 53
e 6 53
e 10 53
e 15 53
e 39 53
e 44 53
e 48 53
e 4 54
e 5 54
e 9 54
e 11 54
e 17 54
e 26 54
e 28 54
e 46 54
e 14 55
e 21 55
e 32 55
e 39 55
e 40 55
e 41 55
e 42 55
e 48 55
e 16 56
e 18 56
e 35 56
e 37 56
e 41 56
e 45 56
e 49 56
e 55 56
e 1 57
e 11 57
e 15 57
e 17 57
e 31 57
e 46 57
e 1 58
e 2 58
e 17 58
e 18 58
e 19 58
e 40 58
e 53 58
e 2 59
e 6 59
e 14 59
e 18 59
e 24 59
e 28 59
e 38 59
e 42 59
e 50 59
e 54 59
e 21 60
e 30 60
e 38 60
e 39 60
e 56 60
e 59 60
e 1 61
e 8 61
e 21 61
e 23 61
e 38 61
e 47 61
e 57 61
e 2 62
e 3 62
e 8 62
e 12 62
e 13 62
e 24 62
e 26 62
e 28 62
e 33 62
e 37 62
e 59 62
e 60 62
e 22 63
e 24 63
e 27 63
e 31 63
e 36 63
e 48 63
e 54 63
e 55 63
e 1 64
e 6 64
e 11 64
e 17 64
e 23 64
e 51 64
e 59 64
e 2 65
e 8 65
e 11 65
e 14 65
e 25 65
e 34 65
e 41 65
e 47 65
e 64 65
e 5 66
e 22 66
e 37 66
e 38 66
e 40 66
e 43 66
e 47 66
e 8 67
e 14 67
e 16 67
e 20 67
e 29 67
e 37 67
e 39 67
e 41 67
e 63 67
e 4 68
e 10 68
e 13 68
e 23 68
e 28 68
e 35 68
e 39 68
e 42 68
e 57 68
e 1 69
e 15 69
e 23 69
e 27 69
e 48 69
e 58 69
e 62 69
e 1 70
e 6 70
e 10 70
e 28 70
e 30 70
e 40 70
e 45 70
e 54 70
e 57 70
e 63 70
e 68 70
